\ Model '(TOY_TEST)'_copy
\ LP format - for model browsing. Use MPS format to capture full model detail.
Minimize
 
Subject To
 qc0: numerator_squared_layer_norm[0.999777753083676,0] + [
   - numerator_layer_norm[0.999777753083676,0] ^2 ] = 0
Bounds
 numerator_layer_norm[0.999777753083676,0] >= 0.8124166512335389
 -infinity <= numerator_squared_layer_norm[0.999777753083676,0] <= 0
End
